; benchmark generated from python API
(set-info :status unknown)
(declare-fun DISJ_W_S1_R_S1 () Bool)
(declare-fun R_E1_V6 () Bool)
(declare-fun W_S1_V6 () Bool)
(declare-fun R_E2_V6 () Bool)
(declare-fun W_S1_V3 () Bool)
(declare-fun W_S1_V1 () Bool)
(declare-fun R_S1_V6 () Bool)
(declare-fun R_S1_V4 () Bool)
(declare-fun R_S1_V5 () Bool)
(declare-fun R_S1_V2 () Bool)
(declare-fun R_S1_V3 () Bool)
(declare-fun R_S1_V1 () Bool)
(declare-fun R_E2_V4 () Bool)
(declare-fun R_E2_V2 () Bool)
(declare-fun R_E1_V5 () Bool)
(declare-fun R_E2_V5 () Bool)
(declare-fun W_S1_V5 () Bool)
(declare-fun W_S1_V4 () Bool)
(declare-fun W_S1_V2 () Bool)
(declare-fun R_E1_V3 () Bool)
(declare-fun R_E1_V1 () Bool)
(declare-fun R_E2_V3 () Bool)
(declare-fun R_E2_V1 () Bool)
(declare-fun DISJ_W_S1_R_E1 () Bool)
(declare-fun DISJ_W_S1_R_E2 () Bool)
(assert
 (let (($x355 (not DISJ_W_S1_R_S1)))
 (let (($x3110 (not (and W_S1_V6 R_E1_V6))))
 (let (($x5020 (not (and W_S1_V6 R_E2_V6))))
 (let (($x5831 (forall ((V2_0 Int) )(forall ((V5_0 Int) )(forall ((V4_0 Int) )(forall ((V6_0 Int) )(forall ((MW_S1_V1 Bool) )(forall ((MW_S1_V3 Bool) )(forall ((MW_S1_V2 Bool) )(forall ((MW_S1_V5 Bool) )(forall ((MW_S1_V4 Bool) )(forall ((MW_S1_V6 Bool) )(forall ((S1_V1_!8171 Int) )(forall ((S1_V1_!8178 Int) )(forall ((S1_V1_!8187 Int) )(forall ((S1_V1_!8193 Int) )(forall ((S1_V3_!8172 Int) )(forall ((S1_V3_!8179 Int) )(forall ((S1_V3_!8188 Int) )(forall ((S1_V3_!8194 Int) )(forall ((S1_V2_!8173 Int) )(forall ((S1_V2_!8180 Int) )(forall ((S1_V2_!8189 Int) )(forall ((S1_V2_!8195 Int) )(forall ((E1_!8168 Int) )(forall ((E1_!8184 Int) )(forall ((E1_!8186 Int) )(forall ((S1_V5_!8174 Int) )(forall ((S1_V5_!8181 Int) )(forall ((S1_V5_!8190 Int) )(forall ((S1_V5_!8196 Int) )(forall ((E2_!8169 Int) )(forall ((E2_!8170 Int) )(forall ((E2_!8177 Int) )(forall ((E2_!8185 Int) )(forall ((S1_V4_!8175 Int) )(forall ((S1_V4_!8182 Int) )(forall ((S1_V4_!8191 Int) )(forall ((S1_V4_!8197 Int) )(forall ((S1_V6_!8176 Int) )(forall ((S1_V6_!8183 Int) )(forall ((S1_V6_!8192 Int) )(forall ((S1_V6_!8198 Int) )(let ((?x2476 (ite MW_S1_V1 S1_V1_!8187 E1_!8186)))
 (let ((?x4892 (+ 1 ?x2476)))
 (let ((?x512 (ite MW_S1_V1 S1_V1_!8193 ?x4892)))
 (let ((?x274 (ite MW_S1_V1 S1_V1_!8171 E1_!8168)))
 (let ((?x812 (+ 1 ?x274)))
 (let ((?x731 (ite MW_S1_V1 S1_V1_!8178 ?x812)))
 (let (($x2438 (and (= ?x731 ?x512) (= (ite MW_S1_V3 S1_V3_!8179 E2_!8177) (ite MW_S1_V3 S1_V3_!8194 E2_!8185)) (= (ite MW_S1_V2 S1_V2_!8180 V2_0) (ite MW_S1_V2 S1_V2_!8195 V2_0)) (= (ite MW_S1_V5 S1_V5_!8181 V5_0) (ite MW_S1_V5 S1_V5_!8196 V5_0)) (= (ite MW_S1_V4 S1_V4_!8182 V4_0) (ite MW_S1_V4 S1_V4_!8197 V4_0)) (= (ite MW_S1_V6 S1_V6_!8183 V6_0) (ite MW_S1_V6 S1_V6_!8198 V6_0)))))
 (let (($x3306 (and (not (<= V4_0 E2_!8169)) (not (<= V2_0 E1_!8168)) (not (<= V4_0 E2_!8170)) (>= (ite MW_S1_V3 S1_V3_!8172 E2_!8170) (+ (- 1) (ite MW_S1_V4 S1_V4_!8175 V4_0))) (not (<= (ite MW_S1_V2 S1_V2_!8173 V2_0) ?x812)) (not (<= (ite MW_S1_V4 S1_V4_!8175 V4_0) E2_!8177)) (>= (ite MW_S1_V3 S1_V3_!8179 E2_!8177) (+ (- 1) (ite MW_S1_V4 S1_V4_!8182 V4_0))) (>= ?x731 (+ (- 1) (ite MW_S1_V2 S1_V2_!8180 V2_0))) (not (<= V2_0 E1_!8184)) (not (<= V4_0 E2_!8185)) (not (<= V2_0 E1_!8186)) (not (<= (ite MW_S1_V2 S1_V2_!8189 V2_0) ?x4892)) (>= ?x512 (+ (- 1) (ite MW_S1_V2 S1_V2_!8195 V2_0))) (>= (ite MW_S1_V3 S1_V3_!8194 E2_!8185) (+ (- 1) (ite MW_S1_V4 S1_V4_!8197 V4_0))))))
 (let (($x5744 (= S1_V6_!8198 S1_V6_!8192)))
 (let (($x3173 (not R_S1_V6)))
 (let (($x1465 (or $x3173 (= (ite MW_S1_V6 S1_V6_!8192 V6_0) V6_0))))
 (let (($x2681 (not R_S1_V4)))
 (let (($x3424 (or $x2681 (= (ite MW_S1_V4 S1_V4_!8191 V4_0) V4_0))))
 (let (($x6050 (not R_S1_V5)))
 (let (($x1399 (or $x6050 (= (ite MW_S1_V5 S1_V5_!8190 V5_0) V5_0))))
 (let (($x3163 (not R_S1_V2)))
 (let (($x1664 (or $x3163 (= (ite MW_S1_V2 S1_V2_!8189 V2_0) V2_0))))
 (let (($x5872 (and (or (not R_S1_V1) (= ?x2476 (+ (- 1) E1_!8186))) (or (not R_S1_V3) (= (ite MW_S1_V3 S1_V3_!8188 E2_!8185) E2_!8185)) $x1664 $x1399 $x3424 $x1465)))
 (let (($x1973 (= S1_V6_!8198 S1_V6_!8183)))
 (let (($x2458 (and (or (not R_S1_V1) (= ?x2476 ?x274)) (or (not R_S1_V3) (= (ite MW_S1_V3 S1_V3_!8188 E2_!8185) E2_!8177)) (or $x3163 (= (ite MW_S1_V2 S1_V2_!8189 V2_0) (ite MW_S1_V2 S1_V2_!8173 V2_0))) (or $x6050 (= (ite MW_S1_V5 S1_V5_!8190 V5_0) (ite MW_S1_V5 S1_V5_!8174 V5_0))) (or $x2681 (= (ite MW_S1_V4 S1_V4_!8191 V4_0) (ite MW_S1_V4 S1_V4_!8175 V4_0))) (or $x3173 (= (ite MW_S1_V6 S1_V6_!8192 V6_0) (ite MW_S1_V6 S1_V6_!8176 V6_0))))))
 (let (($x1944 (not $x2458)))
 (let (($x2610 (and (or (not R_S1_V1) (= ?x2476 (+ (- 1) E1_!8168))) (or (not R_S1_V3) (= (ite MW_S1_V3 S1_V3_!8188 E2_!8185) E2_!8170)) $x1664 $x1399 $x3424 $x1465)))
 (let (($x2171 (not $x2610)))
 (let ((?x126 (ite MW_S1_V6 S1_V6_!8176 V6_0)))
 (let (($x2573 (= V6_0 ?x126)))
 (let (($x5866 (or $x3173 $x2573)))
 (let ((?x1114 (ite MW_S1_V4 S1_V4_!8175 V4_0)))
 (let (($x1868 (= V4_0 ?x1114)))
 (let (($x1858 (or $x2681 $x1868)))
 (let (($x2671 (or $x6050 (= V5_0 (ite MW_S1_V5 S1_V5_!8174 V5_0)))))
 (let ((?x3640 (ite MW_S1_V2 S1_V2_!8173 V2_0)))
 (let (($x4881 (= V2_0 ?x3640)))
 (let (($x2563 (or $x3163 $x4881)))
 (let (($x4175 (and (or (not R_S1_V1) (= E1_!8186 ?x812)) (or (not R_S1_V3) (= E2_!8185 E2_!8177)) $x2563 $x2671 $x1858 $x5866)))
 (let (($x2706 (not $x4175)))
 (let (($x2674 (and (or (not R_S1_V1) (= E1_!8186 E1_!8168)) (or (not R_S1_V3) (= E2_!8185 E2_!8170)))))
 (let (($x1646 (not $x2674)))
 (let (($x4357 (and (or (not R_S1_V1) (= E1_!8168 ?x812)) (or (not R_S1_V3) (= E2_!8170 E2_!8177)) $x2563 $x2671 $x1858 $x5866)))
 (let (($x4821 (not $x4357)))
 (let (($x5793 (or $x3173 (= V6_0 (ite MW_S1_V6 S1_V6_!8192 V6_0)))))
 (let (($x1122 (or $x2681 (= V4_0 (ite MW_S1_V4 S1_V4_!8191 V4_0)))))
 (let (($x138 (or $x6050 (= V5_0 (ite MW_S1_V5 S1_V5_!8190 V5_0)))))
 (let (($x4820 (or $x3163 (= V2_0 (ite MW_S1_V2 S1_V2_!8189 V2_0)))))
 (let (($x3818 (and (or (not R_S1_V1) (= E1_!8186 ?x4892)) (or (not R_S1_V3) (= E2_!8185 (ite MW_S1_V3 S1_V3_!8188 E2_!8185))) $x4820 $x138 $x1122 $x5793)))
 (let (($x5049 (not $x3818)))
 (let (($x3518 (and (or (not R_S1_V1) (= E1_!8168 ?x4892)) (or (not R_S1_V3) (= E2_!8170 (ite MW_S1_V3 S1_V3_!8188 E2_!8185))) $x4820 $x138 $x1122 $x5793)))
 (let (($x687 (not $x3518)))
 (let (($x1020 (and (or (not R_S1_V1) (= E1_!8168 E1_!8186)) (or (not R_S1_V3) (= E2_!8170 E2_!8185)))))
 (let (($x4279 (not $x1020)))
 (let (($x1763 (= E2_!8185 E2_!8177)))
 (let (($x2731 (and (or (not R_E2_V2) $x4881) (or (not R_E2_V4) $x1868) (or (not R_E2_V6) $x2573))))
 (let (($x1362 (= E2_!8185 E2_!8170)))
 (let (($x5301 (= E2_!8177 E2_!8170)))
 (let (($x3451 (and (or (not R_E2_V2) (= ?x3640 V2_0)) (or (not R_E2_V4) (= ?x1114 V4_0)) (or (not R_E2_V6) (= ?x126 V6_0)))))
 (let (($x1048 (not $x3451)))
 (let (($x3194 (= E1_!8186 E1_!8168)))
 (let (($x5894 (and (or (not R_S1_V1) (= ?x274 ?x2476)) (or (not R_S1_V3) (= E2_!8177 (ite MW_S1_V3 S1_V3_!8188 E2_!8185))) (or $x3163 (= ?x3640 (ite MW_S1_V2 S1_V2_!8189 V2_0))) (or $x6050 (= (ite MW_S1_V5 S1_V5_!8174 V5_0) (ite MW_S1_V5 S1_V5_!8190 V5_0))) (or $x2681 (= ?x1114 (ite MW_S1_V4 S1_V4_!8191 V4_0))) (or $x3173 (= ?x126 (ite MW_S1_V6 S1_V6_!8192 V6_0))))))
 (let (($x2713 (not $x5894)))
 (let (($x86 (= ?x126 V6_0)))
 (let (($x2200 (or $x3173 $x86)))
 (let (($x4112 (= ?x1114 V4_0)))
 (let (($x5938 (or $x2681 $x4112)))
 (let (($x1115 (or $x6050 (= (ite MW_S1_V5 S1_V5_!8174 V5_0) V5_0))))
 (let (($x313 (= ?x3640 V2_0)))
 (let (($x2242 (or $x3163 $x313)))
 (let (($x5783 (and (or (not R_S1_V1) (= ?x274 (+ (- 1) E1_!8186))) (or (not R_S1_V3) (= E2_!8177 E2_!8185)) $x2242 $x1115 $x5938 $x2200)))
 (let (($x4705 (not $x5783)))
 (let (($x5929 (and (or (not R_S1_V1) (= ?x274 (+ (- 1) E1_!8168))) (or (not R_S1_V3) $x5301) $x2242 $x1115 $x5938 $x2200)))
 (let (($x2522 (and (or $x4821 (= S1_V1_!8171 S1_V1_!8178)) (or $x4279 (= S1_V1_!8171 S1_V1_!8187)) (or $x687 (= S1_V1_!8171 S1_V1_!8193)) (or $x4705 (= S1_V1_!8178 S1_V1_!8187)) (or $x2713 (= S1_V1_!8178 S1_V1_!8193)) (or $x5049 (= S1_V1_!8187 S1_V1_!8193)) (or (not $x5929) (= S1_V3_!8179 S1_V3_!8172)) (or $x4705 (= S1_V3_!8179 S1_V3_!8188)) (or $x2713 (= S1_V3_!8179 S1_V3_!8194)) (or $x1646 (= S1_V3_!8188 S1_V3_!8172)) (or $x5049 (= S1_V3_!8188 S1_V3_!8194)) (or $x2171 (= S1_V3_!8194 S1_V3_!8172)) (or $x4821 (= S1_V2_!8173 S1_V2_!8180)) (or $x4279 (= S1_V2_!8173 S1_V2_!8189)) (or $x687 (= S1_V2_!8173 S1_V2_!8195)) (or $x2706 (= S1_V2_!8189 S1_V2_!8180)) (or $x5049 (= S1_V2_!8189 S1_V2_!8195)) (or $x1944 (= S1_V2_!8195 S1_V2_!8180)) (= E1_!8184 E1_!8168) (= E1_!8184 E1_!8186) $x3194 (or $x4821 (= S1_V5_!8174 S1_V5_!8181)) (or $x4279 (= S1_V5_!8174 S1_V5_!8190)) (or $x687 (= S1_V5_!8174 S1_V5_!8196)) (or $x2706 (= S1_V5_!8190 S1_V5_!8181)) (or $x5049 (= S1_V5_!8190 S1_V5_!8196)) (or $x1944 (= S1_V5_!8196 S1_V5_!8181)) (= E2_!8170 E2_!8169) (or $x1048 (= E2_!8177 E2_!8169)) (or $x1048 $x5301) (= E2_!8185 E2_!8169) $x1362 (or (not $x2731) $x1763) (or $x4821 (= S1_V4_!8175 S1_V4_!8182)) (or $x4279 (= S1_V4_!8175 S1_V4_!8191)) (or $x687 (= S1_V4_!8175 S1_V4_!8197)) (or $x2706 (= S1_V4_!8191 S1_V4_!8182)) (or $x5049 (= S1_V4_!8191 S1_V4_!8197)) (or $x1944 (= S1_V4_!8197 S1_V4_!8182)) (or $x4821 (= S1_V6_!8176 S1_V6_!8183)) (or $x1646 (= S1_V6_!8192 S1_V6_!8176)) (or $x2706 (= S1_V6_!8192 S1_V6_!8183)) (or $x2171 (= S1_V6_!8198 S1_V6_!8176)) (or $x1944 $x1973) (or (not $x5872) $x5744) (or (not MW_S1_V1) W_S1_V1) (or (not MW_S1_V3) W_S1_V3) (not MW_S1_V2) (not MW_S1_V4) (or (not MW_S1_V6) W_S1_V6))))
 (or (not $x2522) (not $x3306) $x2438)))))))))))))))))))))))))))))))))))))))))))))))))))))))))))))))))))))))
 )
 )
 )
 )
 )
 )
 )
 )
 )
 )
 )
 )
 )
 )
 )
 )
 )
 )
 )
 )
 )
 )
 )
 )
 )
 )
 )
 )
 )
 )
 )
 )
 )
 )
 )
 )
 )
 )
 )
 )
 ))
 (let (($x4673 (not R_E1_V5)))
 (let (($x880 (and W_S1_V6 R_S1_V6)))
 (let (($x2444 (and W_S1_V3 R_S1_V3)))
 (let (($x758 (and W_S1_V1 R_S1_V1)))
 (let (($x2778 (= DISJ_W_S1_R_S1 (not (or $x758 $x2444 R_S1_V5 $x880)))))
 (let (($x6030 (not R_E2_V5)))
 (let (($x51 (or DISJ_W_S1_R_S1 (not W_S1_V1))))
 (let (($x3215 (not W_S1_V4)))
 (let (($x5185 (not W_S1_V2)))
 (let (($x24 (not R_E1_V3)))
 (let (($x5776 (not R_E1_V1)))
 (let (($x5012 (not R_E2_V3)))
 (let (($x3437 (not R_E2_V1)))
 (let (($x727 (and DISJ_W_S1_R_E2 DISJ_W_S1_R_E1 $x3437 $x5012 $x5776 $x24 $x5185 $x3215 $x51 W_S1_V5 $x6030 $x2778 $x4673 $x5831 $x5020 $x3110)))
 (and $x727 $x355))))))))))))))))))))
(check-sat)
